db/data/272242844694732905931989167803202311939.z3.out
-------------------
2500.159109940
